
Gurobi 9.0.1 (linux64) logging started Fri May  1 12:59:30 2020

Gurobi Optimizer version 9.0.1 build v9.0.1rc0 (linux64)
Optimize a model with 10948 rows, 9782 columns and 53724 nonzeros
Model fingerprint: 0x633f06ae
Variable types: 0 continuous, 9782 integer (9702 binary)
Coefficient statistics:
  Matrix range     [1e+00, 2e+01]
  Objective range  [3e+00, 1e+02]
  Bounds range     [1e+00, 1e+00]
  RHS range        [1e+00, 2e+01]

User MIP start produced solution with objective 1186 (0.03s)
Loaded user MIP start with objective 1186

Presolve removed 8224 rows and 1302 columns
Presolve time: 4.95s
Presolved: 2724 rows, 8480 columns, 27520 nonzeros
Variable types: 0 continuous, 8480 integer (8440 binary)

Root simplex log...

Iteration    Objective       Primal Inf.    Dual Inf.      Time
       0    0.0000000e+00   1.463000e+03   0.000000e+00      5s
    1704    6.3665000e+02   0.000000e+00   0.000000e+00      5s

Root relaxation: objective 6.366500e+02, 1704 iterations, 0.10 seconds

    Nodes    |    Current Node    |     Objective Bounds      |     Work
 Expl Unexpl |  Obj  Depth IntInf | Incumbent    BestBd   Gap | It/Node Time

     0     0  636.65000    0   71 1186.00000  636.65000  46.3%     -    5s
     0     0  751.90000    0  110 1186.00000  751.90000  36.6%     -    5s
     0     0  756.50000    0  116 1186.00000  756.50000  36.2%     -    5s
     0     0  765.50000    0  119 1186.00000  765.50000  35.5%     -    5s
     0     0  766.50000    0  116 1186.00000  766.50000  35.4%     -    5s
     0     0  766.50000    0  111 1186.00000  766.50000  35.4%     -    5s
     0     0  766.67500    0  254 1186.00000  766.67500  35.4%     -    6s
     0     0  767.57500    0  244 1186.00000  767.57500  35.3%     -    6s
     0     0  767.57500    0  248 1186.00000  767.57500  35.3%     -    6s
     0     0  771.10000    0  344 1186.00000  771.10000  35.0%     -    6s
     0     0  772.00000    0  284 1186.00000  772.00000  34.9%     -    6s
     0     0  772.00000    0  268 1186.00000  772.00000  34.9%     -    6s
     0     0  772.10000    0  232 1186.00000  772.10000  34.9%     -    6s
     0     0  772.10000    0  249 1186.00000  772.10000  34.9%     -    7s
     0     0  774.00000    0  217 1186.00000  774.00000  34.7%     -    7s
     0     0  775.25000    0  191 1186.00000  775.25000  34.6%     -    7s
     0     0  775.25000    0  156 1186.00000  775.25000  34.6%     -    7s
     0     0  775.33906    0  133 1186.00000  775.33906  34.6%     -    7s
     0     0  775.33906    0  139 1186.00000  775.33906  34.6%     -    7s
     0     0  776.43750    0  133 1186.00000  776.43750  34.5%     -    7s
     0     0  776.43750    0  124 1186.00000  776.43750  34.5%     -    7s
     0     0  776.43750    0  132 1186.00000  776.43750  34.5%     -    7s
     0     0  776.43750    0  135 1186.00000  776.43750  34.5%     -    7s
     0     0  776.43750    0   86 1186.00000  776.43750  34.5%     -    8s
     0     0  776.43750    0   91 1186.00000  776.43750  34.5%     -    8s
     0     0  776.43750    0  105 1186.00000  776.43750  34.5%     -    8s
     0     0  776.43750    0   89 1186.00000  776.43750  34.5%     -    8s
     3     3  779.75000    2   44 1186.00000  779.75000  34.3%  3431   11s
   409   353  879.63333  136   43 1186.00000  780.33898  34.2%  37.6   15s
H  502    88                    1066.0000000  780.84762  26.7%  24.2   15s
   883   413  789.99762   14   57 1066.00000  782.09762  26.6%  30.7   20s
H 1002   526                    1062.0000000  782.09762  26.4%  22.1   22s
  1048   555  782.33772   11   41 1062.00000  782.33772  26.3%  38.7   27s
  1101   577  809.25000   25   99 1062.00000  782.33772  26.3%  38.9   30s
  1413   756  810.75000   34   42 1062.00000  782.60062  26.3%  35.7   35s
H 1652   739                    1034.0000000  783.28522  24.2%  31.4   38s
  1689   769  787.15397   11   62 1034.00000  787.03522  23.9%  38.7   41s
  1743   805  792.86647   38   64 1034.00000  787.66856  23.8%  40.5   45s
  2155   616  793.05189   28  100 1034.00000  789.03522  23.7%  42.5   50s
H 2302   498                     827.0000000  789.33522  4.55%  38.7   51s
  2661   367  800.26455   17   70  827.00000  789.68596  4.51%  39.0   55s
  3099   295  795.53684   18   83  827.00000  794.56316  3.92%  40.0   60s
H 3147   299                     810.0000000  795.20523  1.83%  39.1   60s
H 3226   214                     808.0000000  798.90523  1.13%  39.2   61s
  3490   277  802.75732   17   62  808.00000  801.07143  0.86%  41.1   65s
H 3821   113                     807.0000000  807.00000  0.00%  39.7   68s

Cutting planes:
  Learned: 14
  Gomory: 3
  Implied bound: 6
  MIR: 7
  Zero half: 9
  Mod-K: 1
  Relax-and-lift: 3

Explored 3821 nodes (161724 simplex iterations) in 68.47 seconds
Thread count was 1 (of 40 available processors)

Solution count 8: 807 808 810 ... 1186

Optimal solution found (tolerance 1.00e-04)
Best objective 8.070000000000e+02, best bound 8.070000000000e+02, gap 0.0000%

User-callback calls 9282, time in user-callback 0.02 sec
